281 5
10 10 10 10 10 

0 0 0 0 0 0 1 2 
0 0 0 0 0 0 1 3 
6 0 0 1 0 0 3 7 6 4 
2 0 0 3 0 0 2 12 5 
5 0 0 5 0 0 3 11 9 8 
5 0 0 3 0 0 2 9 8 
9 0 0 2 0 0 2 9 8 
6 0 0 3 0 0 1 10 
3 0 0 3 0 0 1 10 
5 0 0 1 0 0 1 13 
5 0 0 2 0 0 1 13 
1 0 0 2 0 0 1 13 
0 0 0 0 0 0 4 14 46 78 110 
0 0 0 0 0 0 3 15 16 25 
8 1 0 1 1 0 2 29 17 
8 2 0 3 2 0 2 29 17 
4 1 0 1 3 0 2 21 18 
7 3 0 3 3 0 2 24 19 
10 2 0 2 3 0 2 34 20 
6 3 0 2 3 0 2 32 22 
6 3 0 1 2 0 2 24 23 
8 4 0 4 4 0 1 23 
3 2 0 2 2 0 3 39 31 26 
4 3 0 4 1 0 3 39 31 26 
8 1 0 3 2 0 4 36 34 31 28 
9 3 0 1 2 0 2 36 27 
5 4 0 2 3 0 1 28 
1 2 0 2 3 0 1 30 
10 1 0 3 1 0 1 30 
5 4 0 2 3 0 2 44 33 
2 2 0 4 5 0 2 44 33 
10 4 0 2 5 0 2 44 33 
6 3 0 2 3 0 3 43 38 35 
7 2 0 3 2 0 3 43 38 35 
9 2 0 2 4 0 3 42 41 37 
6 1 0 5 2 0 1 37 
2 2 0 1 2 0 2 40 88 
6 3 0 2 2 0 1 41 
8 3 0 3 3 0 1 44 
6 2 0 3 2 0 1 45 
6 3 0 4 2 0 1 45 
4 3 0 1 1 0 1 45 
6 2 0 3 2 0 1 45 
5 4 0 4 2 0 1 45 
0 0 0 0 0 0 1 270 
0 0 0 0 0 0 8 47 70 71 72 73 74 75 76 
1 1 1 1 0 0 2 69 48 
5 2 5 1 0 0 3 68 67 49 
5 4 1 2 0 0 1 50 
10 3 2 2 0 0 1 51 
10 2 2 3 0 0 2 66 52 
1 3 3 1 0 0 3 65 64 53 
6 3 4 4 0 0 1 54 
8 3 2 1 0 0 2 63 55 
9 3 4 2 0 0 1 56 
4 2 2 1 0 0 2 62 57 
7 6 1 4 0 0 1 58 
4 2 2 1 0 0 1 59 
1 2 3 8 0 0 2 60 265 
1 3 3 6 0 0 1 61 
9 1 5 3 0 0 1 77 
9 2 2 2 0 0 1 77 
8 2 4 2 0 0 1 77 
5 3 3 2 0 0 1 77 
9 2 4 3 0 0 1 77 
7 4 3 1 0 0 1 77 
6 2 1 4 0 0 1 77 
1 3 2 3 0 0 1 77 
9 3 3 2 0 0 1 77 
10 2 1 3 0 0 1 77 
6 2 2 3 0 0 1 77 
10 1 1 1 0 0 1 77 
8 3 3 4 0 0 1 77 
5 3 2 1 0 0 1 77 
3 2 1 2 0 0 1 77 
9 1 3 2 0 0 1 77 
0 0 0 0 0 0 1 270 
0 0 0 0 0 0 3 79 80 92 
5 0 0 1 1 1 2 98 81 
6 0 0 2 5 3 2 98 81 
5 0 0 2 3 3 2 85 82 
7 0 0 2 5 2 2 88 83 
2 0 0 1 4 1 2 99 84 
8 0 0 2 2 1 2 95 86 
4 0 0 3 1 6 2 88 87 
9 0 0 4 2 7 1 87 
2 0 0 5 2 2 3 103 94 89 
10 0 0 2 2 2 3 103 100 90 
3 0 0 3 3 2 2 100 90 
9 0 0 2 2 1 1 91 
1 0 0 2 1 2 1 93 
7 0 0 2 3 3 1 93 
8 0 0 4 4 1 2 107 96 
9 0 0 3 2 2 2 107 96 
10 0 0 3 4 2 4 108 107 102 97 
4 0 0 5 5 3 3 108 102 97 
9 0 0 2 2 2 3 106 105 101 
4 0 0 4 2 3 3 106 105 101 
1 0 0 2 3 4 2 105 104 
8 0 0 5 2 3 2 101 205 
5 0 0 1 1 1 1 104 
2 0 0 3 4 4 1 105 
2 0 0 2 2 3 1 107 
6 0 0 1 2 2 1 109 
10 0 0 2 2 2 1 109 
3 0 0 2 2 1 1 109 
6 0 0 2 1 2 1 109 
2 0 0 1 1 4 1 109 
0 0 0 0 0 0 1 270 
0 0 0 0 0 0 3 111 112 114 
1 0 1 0 0 0 3 120 116 113 
4 0 2 0 0 0 3 120 119 115 
10 0 1 0 0 0 2 119 115 
6 0 1 0 0 0 1 116 
9 0 3 0 0 0 1 117 
9 0 3 0 0 0 1 117 
8 0 6 0 0 0 1 118 
9 0 3 0 0 0 1 121 
9 0 1 0 0 0 1 121 
3 0 4 0 0 0 1 121 
0 0 0 0 0 0 5 122 144 166 178 200 
0 0 0 0 0 0 3 123 141 142 
4 1 0 1 0 0 2 140 124 
1 4 0 4 0 0 2 139 125 
5 1 0 1 0 0 3 138 137 126 
7 2 0 1 0 0 3 136 135 127 
2 1 0 5 0 0 2 134 128 
3 5 0 1 0 0 2 133 129 
7 3 0 3 0 0 1 130 
3 2 0 2 0 0 1 131 
3 3 0 4 0 0 1 132 
8 3 0 5 0 0 1 143 
9 1 0 1 0 0 1 143 
9 2 0 3 0 0 1 143 
6 4 0 3 0 0 1 143 
8 3 0 2 0 0 1 143 
7 5 0 2 0 0 1 143 
5 3 0 3 0 0 1 143 
8 3 0 2 0 0 1 143 
6 2 0 3 0 0 1 143 
5 1 0 3 0 0 1 143 
5 1 0 1 0 0 1 143 
0 0 0 0 0 0 1 270 
0 0 0 0 0 0 1 145 
9 0 1 0 0 1 2 150 146 
8 0 2 0 0 1 1 147 
2 0 2 0 0 3 2 156 148 
4 0 2 0 0 5 3 164 163 149 
8 0 5 0 0 4 3 161 155 151 
10 0 3 0 0 3 4 163 161 155 152 
9 0 2 0 0 1 3 162 160 152 
9 0 2 0 0 2 3 159 158 153 
8 0 1 0 0 3 1 154 
9 0 1 0 0 2 1 157 
7 0 1 0 0 3 1 157 
4 0 4 0 0 2 1 160 
9 0 2 0 0 4 1 165 
4 0 4 0 0 6 1 165 
4 0 4 0 0 2 1 165 
1 0 4 0 0 2 1 165 
10 0 2 0 0 1 1 165 
8 0 2 0 0 3 1 165 
9 0 3 0 0 1 1 165 
10 0 3 0 0 1 1 165 
0 0 0 0 0 0 1 270 
0 0 0 0 0 0 4 167 170 175 176 
10 0 0 0 0 1 1 168 
9 0 0 0 0 3 2 174 169 
1 0 0 0 0 1 2 172 171 
7 0 0 0 0 2 2 174 172 
8 0 0 0 0 3 1 173 
4 0 0 0 0 2 1 177 
6 0 0 0 0 2 1 177 
4 0 0 0 0 6 1 177 
2 0 0 0 0 2 1 177 
3 0 0 0 0 3 1 177 
0 0 0 0 0 0 4 222 234 246 258 
0 0 0 0 0 0 4 179 181 197 198 
6 0 0 0 1 1 4 196 195 192 180 
2 0 0 0 3 3 4 194 193 191 182 
1 0 0 0 2 3 3 192 191 182 
1 0 0 0 3 1 1 183 
8 0 0 0 2 4 2 190 184 
8 0 0 0 2 3 1 185 
10 0 0 0 1 3 1 186 
6 0 0 0 5 5 1 187 
1 0 0 0 4 2 1 188 
5 0 0 0 3 5 1 189 
3 0 0 0 2 1 1 199 
8 0 0 0 2 2 1 199 
2 0 0 0 2 1 1 199 
6 0 0 0 4 4 1 199 
2 0 0 0 2 4 1 199 
6 0 0 0 1 2 1 199 
2 0 0 0 2 3 1 199 
10 0 0 0 3 1 1 199 
9 0 0 0 2 1 1 199 
3 0 0 0 4 1 1 199 
0 0 0 0 0 0 1 270 
0 0 0 0 0 0 2 201 202 
10 0 0 1 1 0 2 205 204 
8 0 0 1 2 0 2 207 203 
7 0 0 1 2 0 2 213 204 
3 0 0 4 3 0 2 210 206 
6 0 0 2 2 0 2 208 207 
4 0 0 2 1 0 2 212 208 
2 0 0 2 2 0 2 213 210 
9 0 0 2 5 0 1 209 
10 0 0 7 4 0 2 214 211 
8 0 0 2 1 0 2 214 211 
8 0 0 1 3 0 3 217 216 215 
3 0 0 2 4 0 2 220 215 
3 0 0 3 2 0 1 215 
10 0 0 1 3 0 2 220 219 
8 0 0 5 4 0 1 218 
1 0 0 3 2 0 1 218 
6 0 0 3 1 0 1 218 
7 0 0 2 1 0 1 219 
8 0 0 3 4 0 1 221 
6 0 0 3 3 0 1 221 
0 0 0 0 0 0 1 270 
0 0 0 0 0 0 3 223 226 232 
10 0 0 0 0 1 2 228 224 
8 0 0 0 0 4 2 231 225 
1 0 0 0 0 1 2 230 227 
1 0 0 0 0 2 1 227 
4 0 0 0 0 3 1 229 
10 0 0 0 0 3 1 229 
8 0 0 0 0 2 1 233 
10 0 0 0 0 2 1 233 
5 0 0 0 0 3 1 233 
6 0 0 0 0 4 1 233 
0 0 0 0 0 0 1 270 
0 0 0 0 0 0 6 235 237 239 240 243 244 
5 1 0 0 0 0 1 236 
10 3 0 0 0 0 1 238 
3 3 0 0 0 0 1 238 
10 1 0 0 0 0 1 241 
3 1 0 0 0 0 1 241 
3 4 0 0 0 0 1 241 
10 1 0 0 0 0 1 242 
1 6 0 0 0 0 1 245 
3 3 0 0 0 0 1 245 
1 2 0 0 0 0 1 245 
0 0 0 0 0 0 1 270 
0 0 0 0 0 0 3 247 248 250 
8 0 0 0 1 0 2 251 249 
3 0 0 0 2 0 2 251 249 
7 0 0 0 1 0 2 253 252 
5 0 0 0 3 0 2 253 252 
5 0 0 0 2 0 1 252 
10 0 0 0 4 0 2 255 254 
10 0 0 0 3 0 1 254 
5 0 0 0 4 0 1 256 
2 0 0 0 2 0 1 256 
10 0 0 0 3 0 1 257 
0 0 0 0 0 0 1 270 
0 0 0 0 0 0 2 259 262 
6 1 0 0 0 0 2 261 260 
6 4 0 0 0 0 2 264 263 
5 6 0 0 0 0 1 263 
6 1 0 0 0 0 1 263 
2 2 0 0 0 0 2 266 265 
3 1 0 0 0 0 1 265 
7 5 0 0 0 0 2 268 267 
5 1 0 0 0 0 2 268 267 
8 2 0 0 0 0 1 269 
8 2 0 0 0 0 1 269 
0 0 0 0 0 0 1 270 
0 0 0 0 0 0 2 271 273 
6 0 1 0 0 0 2 275 272 
1 0 4 0 0 0 3 280 276 274 
9 0 3 0 0 0 3 280 279 277 
8 0 2 0 0 0 2 279 277 
8 0 2 0 0 0 2 279 277 
5 0 4 0 0 0 2 279 278 
10 0 2 0 0 0 1 278 
6 0 1 0 0 0 1 281 
6 0 2 0 0 0 1 281 
9 0 4 0 0 0 1 281 
0 0 0 0 0 0 0 
